branch-and-cut/resultados/B/b04.sol
# Objective value = 59
e[0,17] 0
e[17,0] 0
e[1,38] 1
e[38,1] 1
e[1,39] 1
e[39,1] 1
e[1,44] 0
e[44,1] 0
e[2,3] 0
e[3,2] 0
e[2,5] 0
e[5,2] 0
e[2,7] 0
e[7,2] 0
e[2,11] 0
e[11,2] 0
e[2,20] 0
e[20,2] 0
e[2,25] 0
e[25,2] 0
e[2,26] 0
e[26,2] 0
e[2,39] 0
e[39,2] 0
e[2,47] 0
e[47,2] 0
e[2,48] 0
e[48,2] 0
e[3,12] 0
e[12,3] 0
e[3,21] 0
e[21,3] 0
e[3,44] 0
e[44,3] 0
e[6,11] 0
e[11,6] 0
e[6,17] 0
e[17,6] 0
e[7,19] 0
e[19,7] 0
e[7,29] 0
e[29,7] 0
e[7,30] 0
e[30,7] 0
e[7,44] 0
e[44,7] 0
e[9,38] 0
e[38,9] 0
e[10,7] 0
e[7,10] 0
e[10,8] 0
e[8,10] 0
e[10,14] 0
e[14,10] 0
e[10,41] 0
e[41,10] 0
e[10,42] 0
e[42,10] 0
e[12,0] 0
e[0,12] 0
e[12,11] 0
e[11,12] 0
e[12,26] 0
e[26,12] 0
e[12,39] 0
e[39,12] 0
e[14,13] 0
e[13,14] 0
e[14,22] 0
e[22,14] 0
e[14,28] 0
e[28,14] 0
e[14,32] 0
e[32,14] 0
e[15,4] 0
e[4,15] 0
e[15,22] 0
e[22,15] 0
e[15,39] 0
e[39,15] 0
e[16,13] 0
e[13,16] 0
e[16,41] 1
e[41,16] 1
e[17,1] 0
e[1,17] 0
e[17,46] 1
e[46,17] 1
e[19,26] 0
e[26,19] 0
e[19,27] 0
e[27,19] 0
e[19,37] 0
e[37,19] 0
e[20,31] 0
e[31,20] 0
e[21,6] 0
e[6,21] 0
e[21,17] 1
e[17,21] 1
e[22,6] 0
e[6,22] 0
e[22,18] 0
e[18,22] 0
e[22,21] 0
e[21,22] 0
e[22,34] 0
e[34,22] 0
e[23,3] 0
e[3,23] 0
e[23,43] 0
e[43,23] 0
e[24,9] 0
e[9,24] 0
e[24,13] 0
e[13,24] 0
e[25,0] 0
e[0,25] 0
e[26,14] 0
e[14,26] 0
e[26,16] 1
e[16,26] 1
e[26,32] 1
e[32,26] 1
e[28,30] 0
e[30,28] 0
e[29,19] 0
e[19,29] 0
e[30,15] 0
e[15,30] 0
e[30,42] 0
e[42,30] 0
e[30,44] 0
e[44,30] 0
e[31,14] 0
e[14,31] 0
e[31,24] 1
e[24,31] 1
e[31,28] 1
e[28,31] 1
e[31,29] 0
e[29,31] 0
e[31,33] 1
e[33,31] 1
e[31,35] 1
e[35,31] 1
e[31,45] 0
e[45,31] 0
e[32,10] 0
e[10,32] 0
e[32,28] 1
e[28,32] 1
e[32,34] 1
e[34,32] 1
e[33,23] 0
e[23,33] 0
e[34,46] 0
e[46,34] 0
e[35,19] 0
e[19,35] 0
e[35,49] 0
e[49,35] 0
e[36,7] 0
e[7,36] 0
e[36,44] 0
e[44,36] 0
e[37,40] 1
e[40,37] 1
e[37,45] 0
e[45,37] 0
e[38,43] 0
e[43,38] 0
e[39,37] 1
e[37,39] 1
e[39,48] 1
e[48,39] 1
e[40,33] 1
e[33,40] 1
e[40,44] 0
e[44,40] 0
e[42,25] 0
e[25,42] 0
e[42,36] 0
e[36,42] 0
e[44,34] 0
e[34,44] 0
e[44,48] 0
e[48,44] 0
e[46,5] 0
e[5,46] 0
e[46,28] 0
e[28,46] 0
e[46,40] 1
e[40,46] 1
e[47,32] 0
e[32,47] 0
e[49,29] 0
e[29,49] 0
e[49,37] 0
e[37,49] 0
